Route #1: 1 23 7 22 21 18 25 5 1 
Route #2: 1 1 6 8 26 11 15 19 1 
Route #3: 1 24 2 30 17 13 16 3 1 
Route #4: 1 9 4 29 12 28 10 14 1 
Route #5: 1 20 27 1 

Cost 717.792
Time 0.1519


 * Another infos *

 Iterations: 31 Time: 0.1519 sec - 0.0025 min - 0.0000 horas
0.0000 h 0.0025 min
Problem dimension: 31
